# Objective value = 23
WA1n 0
WA1p 0
WA2n 1
WA2p 0
WB1n 0
WB1p 0
WB2n 1
WB2p 0
WC1n 0
WC1p 0
WC2n 0
WC2p 1
WD1n 0
WD1p 0
WD2n 0
WD2p 1
WE1n 0
WE1p 2
WF1n 0
WF1p 2
WF2n 0
WF2p 1
WG1n 4
WG1p 0
WG2n 1
WG2p 0
WT1n 0
WT1p 1
WT2n 0
WT2p 1
5 7
a 0
b 0
c 0
d 0
e 0
f 1
g 0
h 1
i 1
j 1
k 1
l 0
m 0
n 1
o 1
